NAME : instances/20-120-tsp/instance-44.tsp
COMMENT : No Comment
TYPE : TSP
DIMENSION: 44
EDGE_WEIGHT_TYPE : EUC_2D
NODE_COORD_SECTION
1 2278 4704 
2 8221 896 
3 5630 3126 
4 237 5542 
5 8499 8332 
6 244 2536 
7 7852 9674 
8 3890 212 
9 7832 2975 
10 3503 5297 
11 1122 324 
12 4232 5187 
13 3440 3870 
14 7222 3610 
15 3245 7441 
16 9123 5042 
17 8211 1345 
18 6611 4916 
19 1281 7681 
20 5770 9573 
21 265 9211 
22 6895 9175 
23 8677 4880 
24 9431 8177 
25 8123 5774 
26 696 614 
27 8242 9934 
28 4888 2661 
29 3065 8878 
30 3090 540 
31 9441 732 
32 3702 3040 
33 3002 9903 
34 1975 1220 
35 5956 2990 
36 4204 2214 
37 2864 7703 
38 136 2719 
39 4181 809 
40 6842 229 
41 6749 3862 
42 8836 8825 
43 6283 6671 
44 1106 1483 
EOF
